(set-logic QF_LRA)
(declare-fun X0 () Real )
(declare-fun Y0 () Real )
(declare-fun X1 () Real )
(declare-fun Y1 () Real )
(declare-fun X2 () Real )
(declare-fun Y2 () Real )
(declare-fun X3 () Real )
(declare-fun Y3 () Real )
(declare-fun X4 () Real )
(declare-fun Y4 () Real )
(declare-fun X5 () Real )
(declare-fun Y5 () Real )
(declare-fun X6 () Real )
(declare-fun Y6 () Real )
(declare-fun X7 () Real )
(declare-fun Y7 () Real )
(declare-fun X8 () Real )
(declare-fun Y8 () Real )
(declare-fun X9 () Real )
(declare-fun Y9 () Real )
(declare-fun X10 () Real )
(declare-fun Y10 () Real )
(declare-fun X11 () Real )
(declare-fun Y11 () Real )
(declare-fun X12 () Real )
(declare-fun Y12 () Real )
(declare-fun X13 () Real )
(declare-fun Y13 () Real )
(declare-fun X14 () Real )
(declare-fun Y14 () Real )
(declare-fun Z () Real )
(assert ( and  
( or ( <= ( + X0 80 ) X1 )  ( <= ( + X1 55 ) X0 )  ( <= ( + Y0 69 ) Y1 )  ( <= ( + Y1 92 ) Y0 )  )
( or ( <= ( + X0 80 ) X2 )  ( <= ( + X2 26 ) X0 )  ( <= ( + Y0 69 ) Y2 )  ( <= ( + Y2 96 ) Y0 )  )
( or ( <= ( + X0 80 ) X3 )  ( <= ( + X3 18 ) X0 )  ( <= ( + Y0 69 ) Y3 )  ( <= ( + Y3 3 ) Y0 )  )
( or ( <= ( + X0 80 ) X4 )  ( <= ( + X4 84 ) X0 )  ( <= ( + Y0 69 ) Y4 )  ( <= ( + Y4 92 ) Y0 )  )
( or ( <= ( + X0 80 ) X5 )  ( <= ( + X5 69 ) X0 )  ( <= ( + Y0 69 ) Y5 )  ( <= ( + Y5 18 ) Y0 )  )
( or ( <= ( + X0 80 ) X6 )  ( <= ( + X6 55 ) X0 )  ( <= ( + Y0 69 ) Y6 )  ( <= ( + Y6 58 ) Y0 )  )
( or ( <= ( + X0 80 ) X7 )  ( <= ( + X7 41 ) X0 )  ( <= ( + Y0 69 ) Y7 )  ( <= ( + Y7 36 ) Y0 )  )
( or ( <= ( + X0 80 ) X8 )  ( <= ( + X8 60 ) X0 )  ( <= ( + Y0 69 ) Y8 )  ( <= ( + Y8 38 ) Y0 )  )
( or ( <= ( + X0 80 ) X9 )  ( <= ( + X9 65 ) X0 )  ( <= ( + Y0 69 ) Y9 )  ( <= ( + Y9 80 ) Y0 )  )
( or ( <= ( + X0 80 ) X10 )  ( <= ( + X10 65 ) X0 )  ( <= ( + Y0 69 ) Y10 )  ( <= ( + Y10 17 ) Y0 )  )
( or ( <= ( + X0 80 ) X11 )  ( <= ( + X11 87 ) X0 )  ( <= ( + Y0 69 ) Y11 )  ( <= ( + Y11 24 ) Y0 )  )
( or ( <= ( + X0 80 ) X12 )  ( <= ( + X12 89 ) X0 )  ( <= ( + Y0 69 ) Y12 )  ( <= ( + Y12 76 ) Y0 )  )
( or ( <= ( + X0 80 ) X13 )  ( <= ( + X13 42 ) X0 )  ( <= ( + Y0 69 ) Y13 )  ( <= ( + Y13 2 ) Y0 )  )
( or ( <= ( + X0 80 ) X14 )  ( <= ( + X14 97 ) X0 )  ( <= ( + Y0 69 ) Y14 )  ( <= ( + Y14 3 ) Y0 )  )
( or ( <= ( + X1 55 ) X2 )  ( <= ( + X2 26 ) X1 )  ( <= ( + Y1 92 ) Y2 )  ( <= ( + Y2 96 ) Y1 )  )
( or ( <= ( + X1 55 ) X3 )  ( <= ( + X3 18 ) X1 )  ( <= ( + Y1 92 ) Y3 )  ( <= ( + Y3 3 ) Y1 )  )
( or ( <= ( + X1 55 ) X4 )  ( <= ( + X4 84 ) X1 )  ( <= ( + Y1 92 ) Y4 )  ( <= ( + Y4 92 ) Y1 )  )
( or ( <= ( + X1 55 ) X5 )  ( <= ( + X5 69 ) X1 )  ( <= ( + Y1 92 ) Y5 )  ( <= ( + Y5 18 ) Y1 )  )
( or ( <= ( + X1 55 ) X6 )  ( <= ( + X6 55 ) X1 )  ( <= ( + Y1 92 ) Y6 )  ( <= ( + Y6 58 ) Y1 )  )
( or ( <= ( + X1 55 ) X7 )  ( <= ( + X7 41 ) X1 )  ( <= ( + Y1 92 ) Y7 )  ( <= ( + Y7 36 ) Y1 )  )
( or ( <= ( + X1 55 ) X8 )  ( <= ( + X8 60 ) X1 )  ( <= ( + Y1 92 ) Y8 )  ( <= ( + Y8 38 ) Y1 )  )
( or ( <= ( + X1 55 ) X9 )  ( <= ( + X9 65 ) X1 )  ( <= ( + Y1 92 ) Y9 )  ( <= ( + Y9 80 ) Y1 )  )
( or ( <= ( + X1 55 ) X10 )  ( <= ( + X10 65 ) X1 )  ( <= ( + Y1 92 ) Y10 )  ( <= ( + Y10 17 ) Y1 )  )
( or ( <= ( + X1 55 ) X11 )  ( <= ( + X11 87 ) X1 )  ( <= ( + Y1 92 ) Y11 )  ( <= ( + Y11 24 ) Y1 )  )
( or ( <= ( + X1 55 ) X12 )  ( <= ( + X12 89 ) X1 )  ( <= ( + Y1 92 ) Y12 )  ( <= ( + Y12 76 ) Y1 )  )
( or ( <= ( + X1 55 ) X13 )  ( <= ( + X13 42 ) X1 )  ( <= ( + Y1 92 ) Y13 )  ( <= ( + Y13 2 ) Y1 )  )
( or ( <= ( + X1 55 ) X14 )  ( <= ( + X14 97 ) X1 )  ( <= ( + Y1 92 ) Y14 )  ( <= ( + Y14 3 ) Y1 )  )
( or ( <= ( + X2 26 ) X3 )  ( <= ( + X3 18 ) X2 )  ( <= ( + Y2 96 ) Y3 )  ( <= ( + Y3 3 ) Y2 )  )
( or ( <= ( + X2 26 ) X4 )  ( <= ( + X4 84 ) X2 )  ( <= ( + Y2 96 ) Y4 )  ( <= ( + Y4 92 ) Y2 )  )
( or ( <= ( + X2 26 ) X5 )  ( <= ( + X5 69 ) X2 )  ( <= ( + Y2 96 ) Y5 )  ( <= ( + Y5 18 ) Y2 )  )
( or ( <= ( + X2 26 ) X6 )  ( <= ( + X6 55 ) X2 )  ( <= ( + Y2 96 ) Y6 )  ( <= ( + Y6 58 ) Y2 )  )
( or ( <= ( + X2 26 ) X7 )  ( <= ( + X7 41 ) X2 )  ( <= ( + Y2 96 ) Y7 )  ( <= ( + Y7 36 ) Y2 )  )
( or ( <= ( + X2 26 ) X8 )  ( <= ( + X8 60 ) X2 )  ( <= ( + Y2 96 ) Y8 )  ( <= ( + Y8 38 ) Y2 )  )
( or ( <= ( + X2 26 ) X9 )  ( <= ( + X9 65 ) X2 )  ( <= ( + Y2 96 ) Y9 )  ( <= ( + Y9 80 ) Y2 )  )
( or ( <= ( + X2 26 ) X10 )  ( <= ( + X10 65 ) X2 )  ( <= ( + Y2 96 ) Y10 )  ( <= ( + Y10 17 ) Y2 )  )
( or ( <= ( + X2 26 ) X11 )  ( <= ( + X11 87 ) X2 )  ( <= ( + Y2 96 ) Y11 )  ( <= ( + Y11 24 ) Y2 )  )
( or ( <= ( + X2 26 ) X12 )  ( <= ( + X12 89 ) X2 )  ( <= ( + Y2 96 ) Y12 )  ( <= ( + Y12 76 ) Y2 )  )
( or ( <= ( + X2 26 ) X13 )  ( <= ( + X13 42 ) X2 )  ( <= ( + Y2 96 ) Y13 )  ( <= ( + Y13 2 ) Y2 )  )
( or ( <= ( + X2 26 ) X14 )  ( <= ( + X14 97 ) X2 )  ( <= ( + Y2 96 ) Y14 )  ( <= ( + Y14 3 ) Y2 )  )
( or ( <= ( + X3 18 ) X4 )  ( <= ( + X4 84 ) X3 )  ( <= ( + Y3 3 ) Y4 )  ( <= ( + Y4 92 ) Y3 )  )
( or ( <= ( + X3 18 ) X5 )  ( <= ( + X5 69 ) X3 )  ( <= ( + Y3 3 ) Y5 )  ( <= ( + Y5 18 ) Y3 )  )
( or ( <= ( + X3 18 ) X6 )  ( <= ( + X6 55 ) X3 )  ( <= ( + Y3 3 ) Y6 )  ( <= ( + Y6 58 ) Y3 )  )
( or ( <= ( + X3 18 ) X7 )  ( <= ( + X7 41 ) X3 )  ( <= ( + Y3 3 ) Y7 )  ( <= ( + Y7 36 ) Y3 )  )
( or ( <= ( + X3 18 ) X8 )  ( <= ( + X8 60 ) X3 )  ( <= ( + Y3 3 ) Y8 )  ( <= ( + Y8 38 ) Y3 )  )
( or ( <= ( + X3 18 ) X9 )  ( <= ( + X9 65 ) X3 )  ( <= ( + Y3 3 ) Y9 )  ( <= ( + Y9 80 ) Y3 )  )
( or ( <= ( + X3 18 ) X10 )  ( <= ( + X10 65 ) X3 )  ( <= ( + Y3 3 ) Y10 )  ( <= ( + Y10 17 ) Y3 )  )
( or ( <= ( + X3 18 ) X11 )  ( <= ( + X11 87 ) X3 )  ( <= ( + Y3 3 ) Y11 )  ( <= ( + Y11 24 ) Y3 )  )
( or ( <= ( + X3 18 ) X12 )  ( <= ( + X12 89 ) X3 )  ( <= ( + Y3 3 ) Y12 )  ( <= ( + Y12 76 ) Y3 )  )
( or ( <= ( + X3 18 ) X13 )  ( <= ( + X13 42 ) X3 )  ( <= ( + Y3 3 ) Y13 )  ( <= ( + Y13 2 ) Y3 )  )
( or ( <= ( + X3 18 ) X14 )  ( <= ( + X14 97 ) X3 )  ( <= ( + Y3 3 ) Y14 )  ( <= ( + Y14 3 ) Y3 )  )
( or ( <= ( + X4 84 ) X5 )  ( <= ( + X5 69 ) X4 )  ( <= ( + Y4 92 ) Y5 )  ( <= ( + Y5 18 ) Y4 )  )
( or ( <= ( + X4 84 ) X6 )  ( <= ( + X6 55 ) X4 )  ( <= ( + Y4 92 ) Y6 )  ( <= ( + Y6 58 ) Y4 )  )
( or ( <= ( + X4 84 ) X7 )  ( <= ( + X7 41 ) X4 )  ( <= ( + Y4 92 ) Y7 )  ( <= ( + Y7 36 ) Y4 )  )
( or ( <= ( + X4 84 ) X8 )  ( <= ( + X8 60 ) X4 )  ( <= ( + Y4 92 ) Y8 )  ( <= ( + Y8 38 ) Y4 )  )
( or ( <= ( + X4 84 ) X9 )  ( <= ( + X9 65 ) X4 )  ( <= ( + Y4 92 ) Y9 )  ( <= ( + Y9 80 ) Y4 )  )
( or ( <= ( + X4 84 ) X10 )  ( <= ( + X10 65 ) X4 )  ( <= ( + Y4 92 ) Y10 )  ( <= ( + Y10 17 ) Y4 )  )
( or ( <= ( + X4 84 ) X11 )  ( <= ( + X11 87 ) X4 )  ( <= ( + Y4 92 ) Y11 )  ( <= ( + Y11 24 ) Y4 )  )
( or ( <= ( + X4 84 ) X12 )  ( <= ( + X12 89 ) X4 )  ( <= ( + Y4 92 ) Y12 )  ( <= ( + Y12 76 ) Y4 )  )
( or ( <= ( + X4 84 ) X13 )  ( <= ( + X13 42 ) X4 )  ( <= ( + Y4 92 ) Y13 )  ( <= ( + Y13 2 ) Y4 )  )
( or ( <= ( + X4 84 ) X14 )  ( <= ( + X14 97 ) X4 )  ( <= ( + Y4 92 ) Y14 )  ( <= ( + Y14 3 ) Y4 )  )
( or ( <= ( + X5 69 ) X6 )  ( <= ( + X6 55 ) X5 )  ( <= ( + Y5 18 ) Y6 )  ( <= ( + Y6 58 ) Y5 )  )
( or ( <= ( + X5 69 ) X7 )  ( <= ( + X7 41 ) X5 )  ( <= ( + Y5 18 ) Y7 )  ( <= ( + Y7 36 ) Y5 )  )
( or ( <= ( + X5 69 ) X8 )  ( <= ( + X8 60 ) X5 )  ( <= ( + Y5 18 ) Y8 )  ( <= ( + Y8 38 ) Y5 )  )
( or ( <= ( + X5 69 ) X9 )  ( <= ( + X9 65 ) X5 )  ( <= ( + Y5 18 ) Y9 )  ( <= ( + Y9 80 ) Y5 )  )
( or ( <= ( + X5 69 ) X10 )  ( <= ( + X10 65 ) X5 )  ( <= ( + Y5 18 ) Y10 )  ( <= ( + Y10 17 ) Y5 )  )
( or ( <= ( + X5 69 ) X11 )  ( <= ( + X11 87 ) X5 )  ( <= ( + Y5 18 ) Y11 )  ( <= ( + Y11 24 ) Y5 )  )
( or ( <= ( + X5 69 ) X12 )  ( <= ( + X12 89 ) X5 )  ( <= ( + Y5 18 ) Y12 )  ( <= ( + Y12 76 ) Y5 )  )
( or ( <= ( + X5 69 ) X13 )  ( <= ( + X13 42 ) X5 )  ( <= ( + Y5 18 ) Y13 )  ( <= ( + Y13 2 ) Y5 )  )
( or ( <= ( + X5 69 ) X14 )  ( <= ( + X14 97 ) X5 )  ( <= ( + Y5 18 ) Y14 )  ( <= ( + Y14 3 ) Y5 )  )
( or ( <= ( + X6 55 ) X7 )  ( <= ( + X7 41 ) X6 )  ( <= ( + Y6 58 ) Y7 )  ( <= ( + Y7 36 ) Y6 )  )
( or ( <= ( + X6 55 ) X8 )  ( <= ( + X8 60 ) X6 )  ( <= ( + Y6 58 ) Y8 )  ( <= ( + Y8 38 ) Y6 )  )
( or ( <= ( + X6 55 ) X9 )  ( <= ( + X9 65 ) X6 )  ( <= ( + Y6 58 ) Y9 )  ( <= ( + Y9 80 ) Y6 )  )
( or ( <= ( + X6 55 ) X10 )  ( <= ( + X10 65 ) X6 )  ( <= ( + Y6 58 ) Y10 )  ( <= ( + Y10 17 ) Y6 )  )
( or ( <= ( + X6 55 ) X11 )  ( <= ( + X11 87 ) X6 )  ( <= ( + Y6 58 ) Y11 )  ( <= ( + Y11 24 ) Y6 )  )
( or ( <= ( + X6 55 ) X12 )  ( <= ( + X12 89 ) X6 )  ( <= ( + Y6 58 ) Y12 )  ( <= ( + Y12 76 ) Y6 )  )
( or ( <= ( + X6 55 ) X13 )  ( <= ( + X13 42 ) X6 )  ( <= ( + Y6 58 ) Y13 )  ( <= ( + Y13 2 ) Y6 )  )
( or ( <= ( + X6 55 ) X14 )  ( <= ( + X14 97 ) X6 )  ( <= ( + Y6 58 ) Y14 )  ( <= ( + Y14 3 ) Y6 )  )
( or ( <= ( + X7 41 ) X8 )  ( <= ( + X8 60 ) X7 )  ( <= ( + Y7 36 ) Y8 )  ( <= ( + Y8 38 ) Y7 )  )
( or ( <= ( + X7 41 ) X9 )  ( <= ( + X9 65 ) X7 )  ( <= ( + Y7 36 ) Y9 )  ( <= ( + Y9 80 ) Y7 )  )
( or ( <= ( + X7 41 ) X10 )  ( <= ( + X10 65 ) X7 )  ( <= ( + Y7 36 ) Y10 )  ( <= ( + Y10 17 ) Y7 )  )
( or ( <= ( + X7 41 ) X11 )  ( <= ( + X11 87 ) X7 )  ( <= ( + Y7 36 ) Y11 )  ( <= ( + Y11 24 ) Y7 )  )
( or ( <= ( + X7 41 ) X12 )  ( <= ( + X12 89 ) X7 )  ( <= ( + Y7 36 ) Y12 )  ( <= ( + Y12 76 ) Y7 )  )
( or ( <= ( + X7 41 ) X13 )  ( <= ( + X13 42 ) X7 )  ( <= ( + Y7 36 ) Y13 )  ( <= ( + Y13 2 ) Y7 )  )
( or ( <= ( + X7 41 ) X14 )  ( <= ( + X14 97 ) X7 )  ( <= ( + Y7 36 ) Y14 )  ( <= ( + Y14 3 ) Y7 )  )
( or ( <= ( + X8 60 ) X9 )  ( <= ( + X9 65 ) X8 )  ( <= ( + Y8 38 ) Y9 )  ( <= ( + Y9 80 ) Y8 )  )
( or ( <= ( + X8 60 ) X10 )  ( <= ( + X10 65 ) X8 )  ( <= ( + Y8 38 ) Y10 )  ( <= ( + Y10 17 ) Y8 )  )
( or ( <= ( + X8 60 ) X11 )  ( <= ( + X11 87 ) X8 )  ( <= ( + Y8 38 ) Y11 )  ( <= ( + Y11 24 ) Y8 )  )
( or ( <= ( + X8 60 ) X12 )  ( <= ( + X12 89 ) X8 )  ( <= ( + Y8 38 ) Y12 )  ( <= ( + Y12 76 ) Y8 )  )
( or ( <= ( + X8 60 ) X13 )  ( <= ( + X13 42 ) X8 )  ( <= ( + Y8 38 ) Y13 )  ( <= ( + Y13 2 ) Y8 )  )
( or ( <= ( + X8 60 ) X14 )  ( <= ( + X14 97 ) X8 )  ( <= ( + Y8 38 ) Y14 )  ( <= ( + Y14 3 ) Y8 )  )
( or ( <= ( + X9 65 ) X10 )  ( <= ( + X10 65 ) X9 )  ( <= ( + Y9 80 ) Y10 )  ( <= ( + Y10 17 ) Y9 )  )
( or ( <= ( + X9 65 ) X11 )  ( <= ( + X11 87 ) X9 )  ( <= ( + Y9 80 ) Y11 )  ( <= ( + Y11 24 ) Y9 )  )
( or ( <= ( + X9 65 ) X12 )  ( <= ( + X12 89 ) X9 )  ( <= ( + Y9 80 ) Y12 )  ( <= ( + Y12 76 ) Y9 )  )
( or ( <= ( + X9 65 ) X13 )  ( <= ( + X13 42 ) X9 )  ( <= ( + Y9 80 ) Y13 )  ( <= ( + Y13 2 ) Y9 )  )
( or ( <= ( + X9 65 ) X14 )  ( <= ( + X14 97 ) X9 )  ( <= ( + Y9 80 ) Y14 )  ( <= ( + Y14 3 ) Y9 )  )
( or ( <= ( + X10 65 ) X11 )  ( <= ( + X11 87 ) X10 )  ( <= ( + Y10 17 ) Y11 )  ( <= ( + Y11 24 ) Y10 )  )
( or ( <= ( + X10 65 ) X12 )  ( <= ( + X12 89 ) X10 )  ( <= ( + Y10 17 ) Y12 )  ( <= ( + Y12 76 ) Y10 )  )
( or ( <= ( + X10 65 ) X13 )  ( <= ( + X13 42 ) X10 )  ( <= ( + Y10 17 ) Y13 )  ( <= ( + Y13 2 ) Y10 )  )
( or ( <= ( + X10 65 ) X14 )  ( <= ( + X14 97 ) X10 )  ( <= ( + Y10 17 ) Y14 )  ( <= ( + Y14 3 ) Y10 )  )
( or ( <= ( + X11 87 ) X12 )  ( <= ( + X12 89 ) X11 )  ( <= ( + Y11 24 ) Y12 )  ( <= ( + Y12 76 ) Y11 )  )
( or ( <= ( + X11 87 ) X13 )  ( <= ( + X13 42 ) X11 )  ( <= ( + Y11 24 ) Y13 )  ( <= ( + Y13 2 ) Y11 )  )
( or ( <= ( + X11 87 ) X14 )  ( <= ( + X14 97 ) X11 )  ( <= ( + Y11 24 ) Y14 )  ( <= ( + Y14 3 ) Y11 )  )
( or ( <= ( + X12 89 ) X13 )  ( <= ( + X13 42 ) X12 )  ( <= ( + Y12 76 ) Y13 )  ( <= ( + Y13 2 ) Y12 )  )
( or ( <= ( + X12 89 ) X14 )  ( <= ( + X14 97 ) X12 )  ( <= ( + Y12 76 ) Y14 )  ( <= ( + Y14 3 ) Y12 )  )
( or ( <= ( + X13 42 ) X14 )  ( <= ( + X14 97 ) X13 )  ( <= ( + Y13 2 ) Y14 )  ( <= ( + Y14 3 ) Y13 )  )
( >= X0 0)
( <= ( + X0 80) Z)
( >= Y0 0)
( <= ( + Y0 69 ) 100)
( >= X1 0)
( <= ( + X1 55) Z)
( >= Y1 0)
( <= ( + Y1 92 ) 100)
( >= X2 0)
( <= ( + X2 26) Z)
( >= Y2 0)
( <= ( + Y2 96 ) 100)
( >= X3 0)
( <= ( + X3 18) Z)
( >= Y3 0)
( <= ( + Y3 3 ) 100)
( >= X4 0)
( <= ( + X4 84) Z)
( >= Y4 0)
( <= ( + Y4 92 ) 100)
( >= X5 0)
( <= ( + X5 69) Z)
( >= Y5 0)
( <= ( + Y5 18 ) 100)
( >= X6 0)
( <= ( + X6 55) Z)
( >= Y6 0)
( <= ( + Y6 58 ) 100)
( >= X7 0)
( <= ( + X7 41) Z)
( >= Y7 0)
( <= ( + Y7 36 ) 100)
( >= X8 0)
( <= ( + X8 60) Z)
( >= Y8 0)
( <= ( + Y8 38 ) 100)
( >= X9 0)
( <= ( + X9 65) Z)
( >= Y9 0)
( <= ( + Y9 80 ) 100)
( >= X10 0)
( <= ( + X10 65) Z)
( >= Y10 0)
( <= ( + Y10 17 ) 100)
( >= X11 0)
( <= ( + X11 87) Z)
( >= Y11 0)
( <= ( + Y11 24 ) 100)
( >= X12 0)
( <= ( + X12 89) Z)
( >= Y12 0)
( <= ( + Y12 76 ) 100)
( >= X13 0)
( <= ( + X13 42) Z)
( >= Y13 0)
( <= ( + Y13 2 ) 100)
( >= X14 0)
( <= ( + X14 97) Z)
( >= Y14 0)
( <= ( + Y14 3 ) 100)
) )
(minimize Z)
(check-sat)
